c *********************************
c * Circuit generated by BenCGen
c *
c * Parity_277
c *
c * Ports with 1 gate(s): 1
c * Ports with 2 gate(s): 277
c * Total gates: 278
c *********************************
p cnf 555 1109
1 280 0
-1 -280 0
1 -279 0
280 -279 0
-1 -280 279 0
1 2 -281 0
-1 2 281 0
1 -2 281 0
-1 -2 -281 0
3 4 -282 0
-3 4 282 0
3 -4 282 0
-3 -4 -282 0
5 6 -283 0
-5 6 283 0
5 -6 283 0
-5 -6 -283 0
7 8 -284 0
-7 8 284 0
7 -8 284 0
-7 -8 -284 0
9 10 -285 0
-9 10 285 0
9 -10 285 0
-9 -10 -285 0
11 12 -286 0
-11 12 286 0
11 -12 286 0
-11 -12 -286 0
13 14 -287 0
-13 14 287 0
13 -14 287 0
-13 -14 -287 0
15 16 -288 0
-15 16 288 0
15 -16 288 0
-15 -16 -288 0
17 18 -289 0
-17 18 289 0
17 -18 289 0
-17 -18 -289 0
19 20 -290 0
-19 20 290 0
19 -20 290 0
-19 -20 -290 0
21 22 -291 0
-21 22 291 0
21 -22 291 0
-21 -22 -291 0
23 24 -292 0
-23 24 292 0
23 -24 292 0
-23 -24 -292 0
25 26 -293 0
-25 26 293 0
25 -26 293 0
-25 -26 -293 0
27 28 -294 0
-27 28 294 0
27 -28 294 0
-27 -28 -294 0
29 30 -295 0
-29 30 295 0
29 -30 295 0
-29 -30 -295 0
31 32 -296 0
-31 32 296 0
31 -32 296 0
-31 -32 -296 0
33 34 -297 0
-33 34 297 0
33 -34 297 0
-33 -34 -297 0
35 36 -298 0
-35 36 298 0
35 -36 298 0
-35 -36 -298 0
37 38 -299 0
-37 38 299 0
37 -38 299 0
-37 -38 -299 0
39 40 -300 0
-39 40 300 0
39 -40 300 0
-39 -40 -300 0
41 42 -301 0
-41 42 301 0
41 -42 301 0
-41 -42 -301 0
43 44 -302 0
-43 44 302 0
43 -44 302 0
-43 -44 -302 0
45 46 -303 0
-45 46 303 0
45 -46 303 0
-45 -46 -303 0
47 48 -304 0
-47 48 304 0
47 -48 304 0
-47 -48 -304 0
49 50 -305 0
-49 50 305 0
49 -50 305 0
-49 -50 -305 0
51 52 -306 0
-51 52 306 0
51 -52 306 0
-51 -52 -306 0
53 54 -307 0
-53 54 307 0
53 -54 307 0
-53 -54 -307 0
55 56 -308 0
-55 56 308 0
55 -56 308 0
-55 -56 -308 0
57 58 -309 0
-57 58 309 0
57 -58 309 0
-57 -58 -309 0
59 60 -310 0
-59 60 310 0
59 -60 310 0
-59 -60 -310 0
61 62 -311 0
-61 62 311 0
61 -62 311 0
-61 -62 -311 0
63 64 -312 0
-63 64 312 0
63 -64 312 0
-63 -64 -312 0
65 66 -313 0
-65 66 313 0
65 -66 313 0
-65 -66 -313 0
67 68 -314 0
-67 68 314 0
67 -68 314 0
-67 -68 -314 0
69 70 -315 0
-69 70 315 0
69 -70 315 0
-69 -70 -315 0
71 72 -316 0
-71 72 316 0
71 -72 316 0
-71 -72 -316 0
73 74 -317 0
-73 74 317 0
73 -74 317 0
-73 -74 -317 0
75 76 -318 0
-75 76 318 0
75 -76 318 0
-75 -76 -318 0
77 78 -319 0
-77 78 319 0
77 -78 319 0
-77 -78 -319 0
79 80 -320 0
-79 80 320 0
79 -80 320 0
-79 -80 -320 0
81 82 -321 0
-81 82 321 0
81 -82 321 0
-81 -82 -321 0
83 84 -322 0
-83 84 322 0
83 -84 322 0
-83 -84 -322 0
85 86 -323 0
-85 86 323 0
85 -86 323 0
-85 -86 -323 0
87 88 -324 0
-87 88 324 0
87 -88 324 0
-87 -88 -324 0
89 90 -325 0
-89 90 325 0
89 -90 325 0
-89 -90 -325 0
91 92 -326 0
-91 92 326 0
91 -92 326 0
-91 -92 -326 0
93 94 -327 0
-93 94 327 0
93 -94 327 0
-93 -94 -327 0
95 96 -328 0
-95 96 328 0
95 -96 328 0
-95 -96 -328 0
97 98 -329 0
-97 98 329 0
97 -98 329 0
-97 -98 -329 0
99 100 -330 0
-99 100 330 0
99 -100 330 0
-99 -100 -330 0
101 102 -331 0
-101 102 331 0
101 -102 331 0
-101 -102 -331 0
103 104 -332 0
-103 104 332 0
103 -104 332 0
-103 -104 -332 0
105 106 -333 0
-105 106 333 0
105 -106 333 0
-105 -106 -333 0
107 108 -334 0
-107 108 334 0
107 -108 334 0
-107 -108 -334 0
109 110 -335 0
-109 110 335 0
109 -110 335 0
-109 -110 -335 0
111 112 -336 0
-111 112 336 0
111 -112 336 0
-111 -112 -336 0
113 114 -337 0
-113 114 337 0
113 -114 337 0
-113 -114 -337 0
115 116 -338 0
-115 116 338 0
115 -116 338 0
-115 -116 -338 0
117 118 -339 0
-117 118 339 0
117 -118 339 0
-117 -118 -339 0
119 120 -340 0
-119 120 340 0
119 -120 340 0
-119 -120 -340 0
121 122 -341 0
-121 122 341 0
121 -122 341 0
-121 -122 -341 0
123 124 -342 0
-123 124 342 0
123 -124 342 0
-123 -124 -342 0
125 126 -343 0
-125 126 343 0
125 -126 343 0
-125 -126 -343 0
127 128 -344 0
-127 128 344 0
127 -128 344 0
-127 -128 -344 0
129 130 -345 0
-129 130 345 0
129 -130 345 0
-129 -130 -345 0
131 132 -346 0
-131 132 346 0
131 -132 346 0
-131 -132 -346 0
133 134 -347 0
-133 134 347 0
133 -134 347 0
-133 -134 -347 0
135 136 -348 0
-135 136 348 0
135 -136 348 0
-135 -136 -348 0
137 138 -349 0
-137 138 349 0
137 -138 349 0
-137 -138 -349 0
139 140 -350 0
-139 140 350 0
139 -140 350 0
-139 -140 -350 0
141 142 -351 0
-141 142 351 0
141 -142 351 0
-141 -142 -351 0
143 144 -352 0
-143 144 352 0
143 -144 352 0
-143 -144 -352 0
145 146 -353 0
-145 146 353 0
145 -146 353 0
-145 -146 -353 0
147 148 -354 0
-147 148 354 0
147 -148 354 0
-147 -148 -354 0
149 150 -355 0
-149 150 355 0
149 -150 355 0
-149 -150 -355 0
151 152 -356 0
-151 152 356 0
151 -152 356 0
-151 -152 -356 0
153 154 -357 0
-153 154 357 0
153 -154 357 0
-153 -154 -357 0
155 156 -358 0
-155 156 358 0
155 -156 358 0
-155 -156 -358 0
157 158 -359 0
-157 158 359 0
157 -158 359 0
-157 -158 -359 0
159 160 -360 0
-159 160 360 0
159 -160 360 0
-159 -160 -360 0
161 162 -361 0
-161 162 361 0
161 -162 361 0
-161 -162 -361 0
163 164 -362 0
-163 164 362 0
163 -164 362 0
-163 -164 -362 0
165 166 -363 0
-165 166 363 0
165 -166 363 0
-165 -166 -363 0
167 168 -364 0
-167 168 364 0
167 -168 364 0
-167 -168 -364 0
169 170 -365 0
-169 170 365 0
169 -170 365 0
-169 -170 -365 0
171 172 -366 0
-171 172 366 0
171 -172 366 0
-171 -172 -366 0
173 174 -367 0
-173 174 367 0
173 -174 367 0
-173 -174 -367 0
175 176 -368 0
-175 176 368 0
175 -176 368 0
-175 -176 -368 0
177 178 -369 0
-177 178 369 0
177 -178 369 0
-177 -178 -369 0
179 180 -370 0
-179 180 370 0
179 -180 370 0
-179 -180 -370 0
181 182 -371 0
-181 182 371 0
181 -182 371 0
-181 -182 -371 0
183 184 -372 0
-183 184 372 0
183 -184 372 0
-183 -184 -372 0
185 186 -373 0
-185 186 373 0
185 -186 373 0
-185 -186 -373 0
187 188 -374 0
-187 188 374 0
187 -188 374 0
-187 -188 -374 0
189 190 -375 0
-189 190 375 0
189 -190 375 0
-189 -190 -375 0
191 192 -376 0
-191 192 376 0
191 -192 376 0
-191 -192 -376 0
193 194 -377 0
-193 194 377 0
193 -194 377 0
-193 -194 -377 0
195 196 -378 0
-195 196 378 0
195 -196 378 0
-195 -196 -378 0
197 198 -379 0
-197 198 379 0
197 -198 379 0
-197 -198 -379 0
199 200 -380 0
-199 200 380 0
199 -200 380 0
-199 -200 -380 0
201 202 -381 0
-201 202 381 0
201 -202 381 0
-201 -202 -381 0
203 204 -382 0
-203 204 382 0
203 -204 382 0
-203 -204 -382 0
205 206 -383 0
-205 206 383 0
205 -206 383 0
-205 -206 -383 0
207 208 -384 0
-207 208 384 0
207 -208 384 0
-207 -208 -384 0
209 210 -385 0
-209 210 385 0
209 -210 385 0
-209 -210 -385 0
211 212 -386 0
-211 212 386 0
211 -212 386 0
-211 -212 -386 0
213 214 -387 0
-213 214 387 0
213 -214 387 0
-213 -214 -387 0
215 216 -388 0
-215 216 388 0
215 -216 388 0
-215 -216 -388 0
217 218 -389 0
-217 218 389 0
217 -218 389 0
-217 -218 -389 0
219 220 -390 0
-219 220 390 0
219 -220 390 0
-219 -220 -390 0
221 222 -391 0
-221 222 391 0
221 -222 391 0
-221 -222 -391 0
223 224 -392 0
-223 224 392 0
223 -224 392 0
-223 -224 -392 0
225 226 -393 0
-225 226 393 0
225 -226 393 0
-225 -226 -393 0
227 228 -394 0
-227 228 394 0
227 -228 394 0
-227 -228 -394 0
229 230 -395 0
-229 230 395 0
229 -230 395 0
-229 -230 -395 0
231 232 -396 0
-231 232 396 0
231 -232 396 0
-231 -232 -396 0
233 234 -397 0
-233 234 397 0
233 -234 397 0
-233 -234 -397 0
235 236 -398 0
-235 236 398 0
235 -236 398 0
-235 -236 -398 0
237 238 -399 0
-237 238 399 0
237 -238 399 0
-237 -238 -399 0
239 240 -400 0
-239 240 400 0
239 -240 400 0
-239 -240 -400 0
241 242 -401 0
-241 242 401 0
241 -242 401 0
-241 -242 -401 0
243 244 -402 0
-243 244 402 0
243 -244 402 0
-243 -244 -402 0
245 246 -403 0
-245 246 403 0
245 -246 403 0
-245 -246 -403 0
247 248 -404 0
-247 248 404 0
247 -248 404 0
-247 -248 -404 0
249 250 -405 0
-249 250 405 0
249 -250 405 0
-249 -250 -405 0
251 252 -406 0
-251 252 406 0
251 -252 406 0
-251 -252 -406 0
253 254 -407 0
-253 254 407 0
253 -254 407 0
-253 -254 -407 0
255 256 -408 0
-255 256 408 0
255 -256 408 0
-255 -256 -408 0
257 258 -409 0
-257 258 409 0
257 -258 409 0
-257 -258 -409 0
259 260 -410 0
-259 260 410 0
259 -260 410 0
-259 -260 -410 0
261 262 -411 0
-261 262 411 0
261 -262 411 0
-261 -262 -411 0
263 264 -412 0
-263 264 412 0
263 -264 412 0
-263 -264 -412 0
265 266 -413 0
-265 266 413 0
265 -266 413 0
-265 -266 -413 0
267 268 -414 0
-267 268 414 0
267 -268 414 0
-267 -268 -414 0
269 270 -415 0
-269 270 415 0
269 -270 415 0
-269 -270 -415 0
271 272 -416 0
-271 272 416 0
271 -272 416 0
-271 -272 -416 0
273 274 -417 0
-273 274 417 0
273 -274 417 0
-273 -274 -417 0
275 276 -418 0
-275 276 418 0
275 -276 418 0
-275 -276 -418 0
281 282 -419 0
-281 282 419 0
281 -282 419 0
-281 -282 -419 0
283 284 -420 0
-283 284 420 0
283 -284 420 0
-283 -284 -420 0
285 286 -421 0
-285 286 421 0
285 -286 421 0
-285 -286 -421 0
287 288 -422 0
-287 288 422 0
287 -288 422 0
-287 -288 -422 0
289 290 -423 0
-289 290 423 0
289 -290 423 0
-289 -290 -423 0
291 292 -424 0
-291 292 424 0
291 -292 424 0
-291 -292 -424 0
293 294 -425 0
-293 294 425 0
293 -294 425 0
-293 -294 -425 0
295 296 -426 0
-295 296 426 0
295 -296 426 0
-295 -296 -426 0
297 298 -427 0
-297 298 427 0
297 -298 427 0
-297 -298 -427 0
299 300 -428 0
-299 300 428 0
299 -300 428 0
-299 -300 -428 0
301 302 -429 0
-301 302 429 0
301 -302 429 0
-301 -302 -429 0
303 304 -430 0
-303 304 430 0
303 -304 430 0
-303 -304 -430 0
305 306 -431 0
-305 306 431 0
305 -306 431 0
-305 -306 -431 0
307 308 -432 0
-307 308 432 0
307 -308 432 0
-307 -308 -432 0
309 310 -433 0
-309 310 433 0
309 -310 433 0
-309 -310 -433 0
311 312 -434 0
-311 312 434 0
311 -312 434 0
-311 -312 -434 0
313 314 -435 0
-313 314 435 0
313 -314 435 0
-313 -314 -435 0
315 316 -436 0
-315 316 436 0
315 -316 436 0
-315 -316 -436 0
317 318 -437 0
-317 318 437 0
317 -318 437 0
-317 -318 -437 0
319 320 -438 0
-319 320 438 0
319 -320 438 0
-319 -320 -438 0
321 322 -439 0
-321 322 439 0
321 -322 439 0
-321 -322 -439 0
323 324 -440 0
-323 324 440 0
323 -324 440 0
-323 -324 -440 0
325 326 -441 0
-325 326 441 0
325 -326 441 0
-325 -326 -441 0
327 328 -442 0
-327 328 442 0
327 -328 442 0
-327 -328 -442 0
329 330 -443 0
-329 330 443 0
329 -330 443 0
-329 -330 -443 0
331 332 -444 0
-331 332 444 0
331 -332 444 0
-331 -332 -444 0
333 334 -445 0
-333 334 445 0
333 -334 445 0
-333 -334 -445 0
335 336 -446 0
-335 336 446 0
335 -336 446 0
-335 -336 -446 0
337 338 -447 0
-337 338 447 0
337 -338 447 0
-337 -338 -447 0
339 340 -448 0
-339 340 448 0
339 -340 448 0
-339 -340 -448 0
341 342 -449 0
-341 342 449 0
341 -342 449 0
-341 -342 -449 0
343 344 -450 0
-343 344 450 0
343 -344 450 0
-343 -344 -450 0
345 346 -451 0
-345 346 451 0
345 -346 451 0
-345 -346 -451 0
347 348 -452 0
-347 348 452 0
347 -348 452 0
-347 -348 -452 0
349 350 -453 0
-349 350 453 0
349 -350 453 0
-349 -350 -453 0
351 352 -454 0
-351 352 454 0
351 -352 454 0
-351 -352 -454 0
353 354 -455 0
-353 354 455 0
353 -354 455 0
-353 -354 -455 0
355 356 -456 0
-355 356 456 0
355 -356 456 0
-355 -356 -456 0
357 358 -457 0
-357 358 457 0
357 -358 457 0
-357 -358 -457 0
359 360 -458 0
-359 360 458 0
359 -360 458 0
-359 -360 -458 0
361 362 -459 0
-361 362 459 0
361 -362 459 0
-361 -362 -459 0
363 364 -460 0
-363 364 460 0
363 -364 460 0
-363 -364 -460 0
365 366 -461 0
-365 366 461 0
365 -366 461 0
-365 -366 -461 0
367 368 -462 0
-367 368 462 0
367 -368 462 0
-367 -368 -462 0
369 370 -463 0
-369 370 463 0
369 -370 463 0
-369 -370 -463 0
371 372 -464 0
-371 372 464 0
371 -372 464 0
-371 -372 -464 0
373 374 -465 0
-373 374 465 0
373 -374 465 0
-373 -374 -465 0
375 376 -466 0
-375 376 466 0
375 -376 466 0
-375 -376 -466 0
377 378 -467 0
-377 378 467 0
377 -378 467 0
-377 -378 -467 0
379 380 -468 0
-379 380 468 0
379 -380 468 0
-379 -380 -468 0
381 382 -469 0
-381 382 469 0
381 -382 469 0
-381 -382 -469 0
383 384 -470 0
-383 384 470 0
383 -384 470 0
-383 -384 -470 0
385 386 -471 0
-385 386 471 0
385 -386 471 0
-385 -386 -471 0
387 388 -472 0
-387 388 472 0
387 -388 472 0
-387 -388 -472 0
389 390 -473 0
-389 390 473 0
389 -390 473 0
-389 -390 -473 0
391 392 -474 0
-391 392 474 0
391 -392 474 0
-391 -392 -474 0
393 394 -475 0
-393 394 475 0
393 -394 475 0
-393 -394 -475 0
395 396 -476 0
-395 396 476 0
395 -396 476 0
-395 -396 -476 0
397 398 -477 0
-397 398 477 0
397 -398 477 0
-397 -398 -477 0
399 400 -478 0
-399 400 478 0
399 -400 478 0
-399 -400 -478 0
401 402 -479 0
-401 402 479 0
401 -402 479 0
-401 -402 -479 0
403 404 -480 0
-403 404 480 0
403 -404 480 0
-403 -404 -480 0
405 406 -481 0
-405 406 481 0
405 -406 481 0
-405 -406 -481 0
407 408 -482 0
-407 408 482 0
407 -408 482 0
-407 -408 -482 0
409 410 -483 0
-409 410 483 0
409 -410 483 0
-409 -410 -483 0
411 412 -484 0
-411 412 484 0
411 -412 484 0
-411 -412 -484 0
413 414 -485 0
-413 414 485 0
413 -414 485 0
-413 -414 -485 0
415 416 -486 0
-415 416 486 0
415 -416 486 0
-415 -416 -486 0
417 418 -487 0
-417 418 487 0
417 -418 487 0
-417 -418 -487 0
419 420 -488 0
-419 420 488 0
419 -420 488 0
-419 -420 -488 0
421 422 -489 0
-421 422 489 0
421 -422 489 0
-421 -422 -489 0
423 424 -490 0
-423 424 490 0
423 -424 490 0
-423 -424 -490 0
425 426 -491 0
-425 426 491 0
425 -426 491 0
-425 -426 -491 0
427 428 -492 0
-427 428 492 0
427 -428 492 0
-427 -428 -492 0
429 430 -493 0
-429 430 493 0
429 -430 493 0
-429 -430 -493 0
431 432 -494 0
-431 432 494 0
431 -432 494 0
-431 -432 -494 0
433 434 -495 0
-433 434 495 0
433 -434 495 0
-433 -434 -495 0
435 436 -496 0
-435 436 496 0
435 -436 496 0
-435 -436 -496 0
437 438 -497 0
-437 438 497 0
437 -438 497 0
-437 -438 -497 0
439 440 -498 0
-439 440 498 0
439 -440 498 0
-439 -440 -498 0
441 442 -499 0
-441 442 499 0
441 -442 499 0
-441 -442 -499 0
443 444 -500 0
-443 444 500 0
443 -444 500 0
-443 -444 -500 0
445 446 -501 0
-445 446 501 0
445 -446 501 0
-445 -446 -501 0
447 448 -502 0
-447 448 502 0
447 -448 502 0
-447 -448 -502 0
449 450 -503 0
-449 450 503 0
449 -450 503 0
-449 -450 -503 0
451 452 -504 0
-451 452 504 0
451 -452 504 0
-451 -452 -504 0
453 454 -505 0
-453 454 505 0
453 -454 505 0
-453 -454 -505 0
455 456 -506 0
-455 456 506 0
455 -456 506 0
-455 -456 -506 0
457 458 -507 0
-457 458 507 0
457 -458 507 0
-457 -458 -507 0
459 460 -508 0
-459 460 508 0
459 -460 508 0
-459 -460 -508 0
461 462 -509 0
-461 462 509 0
461 -462 509 0
-461 -462 -509 0
463 464 -510 0
-463 464 510 0
463 -464 510 0
-463 -464 -510 0
465 466 -511 0
-465 466 511 0
465 -466 511 0
-465 -466 -511 0
467 468 -512 0
-467 468 512 0
467 -468 512 0
-467 -468 -512 0
469 470 -513 0
-469 470 513 0
469 -470 513 0
-469 -470 -513 0
471 472 -514 0
-471 472 514 0
471 -472 514 0
-471 -472 -514 0
473 474 -515 0
-473 474 515 0
473 -474 515 0
-473 -474 -515 0
475 476 -516 0
-475 476 516 0
475 -476 516 0
-475 -476 -516 0
477 478 -517 0
-477 478 517 0
477 -478 517 0
-477 -478 -517 0
479 480 -518 0
-479 480 518 0
479 -480 518 0
-479 -480 -518 0
481 482 -519 0
-481 482 519 0
481 -482 519 0
-481 -482 -519 0
483 484 -520 0
-483 484 520 0
483 -484 520 0
-483 -484 -520 0
485 486 -521 0
-485 486 521 0
485 -486 521 0
-485 -486 -521 0
487 277 -522 0
-487 277 522 0
487 -277 522 0
-487 -277 -522 0
488 489 -523 0
-488 489 523 0
488 -489 523 0
-488 -489 -523 0
490 491 -524 0
-490 491 524 0
490 -491 524 0
-490 -491 -524 0
492 493 -525 0
-492 493 525 0
492 -493 525 0
-492 -493 -525 0
494 495 -526 0
-494 495 526 0
494 -495 526 0
-494 -495 -526 0
496 497 -527 0
-496 497 527 0
496 -497 527 0
-496 -497 -527 0
498 499 -528 0
-498 499 528 0
498 -499 528 0
-498 -499 -528 0
500 501 -529 0
-500 501 529 0
500 -501 529 0
-500 -501 -529 0
502 503 -530 0
-502 503 530 0
502 -503 530 0
-502 -503 -530 0
504 505 -531 0
-504 505 531 0
504 -505 531 0
-504 -505 -531 0
506 507 -532 0
-506 507 532 0
506 -507 532 0
-506 -507 -532 0
508 509 -533 0
-508 509 533 0
508 -509 533 0
-508 -509 -533 0
510 511 -534 0
-510 511 534 0
510 -511 534 0
-510 -511 -534 0
512 513 -535 0
-512 513 535 0
512 -513 535 0
-512 -513 -535 0
514 515 -536 0
-514 515 536 0
514 -515 536 0
-514 -515 -536 0
516 517 -537 0
-516 517 537 0
516 -517 537 0
-516 -517 -537 0
518 519 -538 0
-518 519 538 0
518 -519 538 0
-518 -519 -538 0
520 521 -539 0
-520 521 539 0
520 -521 539 0
-520 -521 -539 0
523 524 -540 0
-523 524 540 0
523 -524 540 0
-523 -524 -540 0
525 526 -541 0
-525 526 541 0
525 -526 541 0
-525 -526 -541 0
527 528 -542 0
-527 528 542 0
527 -528 542 0
-527 -528 -542 0
529 530 -543 0
-529 530 543 0
529 -530 543 0
-529 -530 -543 0
531 532 -544 0
-531 532 544 0
531 -532 544 0
-531 -532 -544 0
533 534 -545 0
-533 534 545 0
533 -534 545 0
-533 -534 -545 0
535 536 -546 0
-535 536 546 0
535 -536 546 0
-535 -536 -546 0
537 538 -547 0
-537 538 547 0
537 -538 547 0
-537 -538 -547 0
539 522 -548 0
-539 522 548 0
539 -522 548 0
-539 -522 -548 0
540 541 -549 0
-540 541 549 0
540 -541 549 0
-540 -541 -549 0
542 543 -550 0
-542 543 550 0
542 -543 550 0
-542 -543 -550 0
544 545 -551 0
-544 545 551 0
544 -545 551 0
-544 -545 -551 0
546 547 -552 0
-546 547 552 0
546 -547 552 0
-546 -547 -552 0
549 550 -553 0
-549 550 553 0
549 -550 553 0
-549 -550 -553 0
551 552 -554 0
-551 552 554 0
551 -552 554 0
-551 -552 -554 0
553 554 -555 0
-553 554 555 0
553 -554 555 0
-553 -554 -555 0
555 548 -278 0
-555 548 278 0
555 -548 278 0
-555 -548 -278 0
